NAME : amz1845.123160_121660.tour
COMMENT : Cost = 123160_121660
COMMENT : Found by LKH-AMZ [Keld Helsgaun] Sun May 11 13:30:41 2025
COMMENT : TW viol.: 0 #: 0
TYPE : TOUR
DIMENSION : 133
TOUR_SECTION
10
46
97
26
5
51
22
40
129
6
3
8
105
49
41
34
103
24
80
2
65
102
59
12
52
81
31
28
43
60
57
67
107
25
127
69
17
13
66
53
124
58
64
16
56
112
19
7
82
132
90
42
98
11
117
94
120
109
114
118
23
95
126
119
91
55
35
78
33
122
20
108
113
72
130
63
44
104
62
27
39
85
86
36
71
88
99
92
77
116
101
76
128
74
1
68
18
15
38
29
115
4
14
110
87
47
54
131
111
100
21
48
83
84
32
70
73
89
123
93
75
133
125
9
106
79
61
50
30
45
37
96
121
-1
EOF
